StringID     Type         x            y            demand       ReadyTime    DueDate      ServiceTime  PartnerID    
D0           d            40.0         50.0         0.0          0.0          1236.0       0.0          0            
S0           f            40.0         50.0         0.0          0.0          1236.0       0.0          0            
S1           f            73.0         52.0         0.0          0.0          1236.0       0.0          0            
S2           f            90.0         55.0         0.0          0.0          1236.0       0.0          0            
S3           f            55.0         79.0         0.0          0.0          1236.0       0.0          0            
S4           f            69.0         89.0         0.0          0.0          1236.0       0.0          0            
S5           f            32.0         80.0         0.0          0.0          1236.0       0.0          0            
S6           f            39.0         96.0         0.0          0.0          1236.0       0.0          0            
S7           f            23.0         80.0         0.0          0.0          1236.0       0.0          0            
S8           f            4.0          83.0         0.0          0.0          1236.0       0.0          0            
S9           f            18.0         58.0         0.0          0.0          1236.0       0.0          0            
S10          f            1.0          56.0         0.0          0.0          1236.0       0.0          0            
S11          f            13.0         31.0         0.0          0.0          1236.0       0.0          0            
S12          f            -5.0         38.0         0.0          0.0          1236.0       0.0          0            
S13          f            26.0         37.0         0.0          0.0          1236.0       0.0          0            
S14          f            28.0         13.0         0.0          0.0          1236.0       0.0          0            
S15          f            39.0         31.0         0.0          0.0          1236.0       0.0          0            
S16          f            48.0         11.0         0.0          0.0          1236.0       0.0          0            
S17          f            59.0         17.0         0.0          0.0          1236.0       0.0          0            
S18          f            73.0         23.0         0.0          0.0          1236.0       0.0          0            
S19          f            74.0         32.0         0.0          0.0          1236.0       0.0          0            
S20          f            90.0         44.0         0.0          0.0          1236.0       0.0          0            
C1           cp           45.0         68.0         10.0         0.0          1127.0       90.0         C75          
C2           cd           45.0         70.0         -20.0        0.0          1125.0       90.0         C8           
C3           cp           42.0         66.0         10.0         0.0          1129.0       90.0         C10          
C4           cd           42.0         68.0         -20.0        727.0        782.0        90.0         C6           
C5           cp           42.0         65.0         10.0         0.0          1130.0       90.0         C9           
C6           cp           40.0         69.0         20.0         621.0        702.0        90.0         C4           
C7           cp           40.0         66.0         20.0         0.0          1130.0       90.0         C11          
C8           cp           38.0         68.0         20.0         255.0        324.0        90.0         C2           
C9           cd           38.0         70.0         -10.0        534.0        605.0        90.0         C5           
C10          cd           35.0         66.0         -10.0        357.0        410.0        90.0         C3           
C11          cd           35.0         69.0         -20.0        448.0        505.0        90.0         C7           
C12          cd           25.0         85.0         -30.0        0.0          1107.0       90.0         C13          
C13          cp           22.0         75.0         30.0         30.0         92.0         90.0         C12          
C14          cd           22.0         85.0         -40.0        567.0        620.0        90.0         C16          
C15          cd           20.0         80.0         -20.0        384.0        429.0        90.0         C18          
C16          cp           20.0         85.0         40.0         475.0        528.0        90.0         C14          
C17          cp           18.0         75.0         20.0         99.0         148.0        90.0         C19          
C18          cp           15.0         75.0         20.0         179.0        254.0        90.0         C15          
C19          cd           15.0         80.0         -20.0        278.0        345.0        90.0         C17          
C20          cp           30.0         50.0         10.0         10.0         73.0         90.0         C22          
C21          cd           30.0         52.0         -10.0        0.0          1135.0       90.0         C23          
C22          cd           28.0         52.0         -10.0        812.0        883.0        90.0         C20          
C23          cp           28.0         55.0         10.0         732.0        777.0        90.0         C21          
C24          cp           25.0         50.0         10.0         65.0         144.0        90.0         C25          
C25          cd           25.0         52.0         -10.0        169.0        224.0        90.0         C24          
C26          cd           25.0         55.0         -10.0        0.0          1130.0       90.0         C29          
C27          cp           23.0         52.0         10.0         261.0        316.0        90.0         C30          
C28          cp           23.0         55.0         20.0         546.0        593.0        0.0          C103         
C29          cp           20.0         50.0         10.0         358.0        405.0        90.0         C26          
C30          cd           20.0         55.0         -10.0        449.0        504.0        90.0         C27          
C31          cp           10.0         35.0         20.0         0.0          1112.0       90.0         C35          
C32          cp           10.0         40.0         30.0         31.0         100.0        90.0         C33          
C33          cd           8.0          40.0         -30.0        87.0         158.0        90.0         C32          
C34          cd           8.0          45.0         -20.0        0.0          1113.0       90.0         C37          
C35          cd           5.0          35.0         -20.0        283.0        344.0        90.0         C31          
C36          cd           5.0          45.0         -30.0        665.0        716.0        90.0         C38          
C37          cp           2.0          40.0         20.0         0.0          1106.0       90.0         C34          
C38          cp           0.0          40.0         30.0         479.0        522.0        90.0         C36          
C39          cp           0.0          45.0         20.0         567.0        624.0        0.0          C104         
C40          cd           35.0         30.0         -10.0        264.0        321.0        90.0         C43          
C41          cp           35.0         32.0         10.0         166.0        235.0        90.0         C51          
C42          cp           33.0         32.0         20.0         68.0         149.0        90.0         C48          
C43          cp           33.0         35.0         10.0         16.0         80.0         90.0         C40          
C44          cp           32.0         30.0         10.0         359.0        412.0        90.0         C47          
C45          cd           30.0         30.0         -30.0        541.0        600.0        90.0         C46          
C46          cp           30.0         32.0         30.0         448.0        509.0        90.0         C45          
C47          cd           30.0         35.0         -10.0        1054.0       1127.0       90.0         C44          
C48          cd           28.0         30.0         -20.0        0.0          1122.0       90.0         C42          
C49          cd           28.0         35.0         -10.0        1001.0       1066.0       90.0         C52          
C50          cp           26.0         32.0         10.0         0.0          1123.0       0.0          C106         
C51          cd           25.0         30.0         -10.0        725.0        786.0        90.0         C41          
C52          cp           25.0         35.0         10.0         0.0          1124.0       90.0         C49          
C53          cd           44.0         5.0          -10.0        286.0        347.0        90.0         C55          
C54          cp           42.0         10.0         40.0         186.0        257.0        90.0         C56          
C55          cp           42.0         15.0         10.0         95.0         158.0        90.0         C53          
C56          cd           40.0         5.0          -40.0        385.0        436.0        90.0         C54          
C57          cp           40.0         15.0         40.0         35.0         87.0         90.0         C60          
C58          cp           38.0         5.0          30.0         471.0        534.0        90.0         C59          
C59          cd           38.0         15.0         -30.0        0.0          1110.0       90.0         C58          
C60          cd           35.0         5.0          -40.0        562.0        629.0        90.0         C57          
C61          cd           50.0         30.0         -10.0        531.0        610.0        90.0         C67          
C62          cp           50.0         35.0         20.0         262.0        317.0        90.0         C66          
C63          cp           50.0         40.0         50.0         171.0        218.0        90.0         C69          
C64          cd           48.0         30.0         -50.0        632.0        693.0        90.0         C74          
C65          cp           48.0         40.0         10.0         76.0         129.0        90.0         C72          
C66          cd           47.0         35.0         -20.0        826.0        875.0        90.0         C62          
C67          cp           47.0         40.0         10.0         12.0         77.0         90.0         C61          
C68          cp           45.0         30.0         10.0         734.0        777.0        0.0          C102         
C69          cd           45.0         35.0         -50.0        916.0        969.0        90.0         C63          
C70          cd           95.0         30.0         -30.0        387.0        456.0        90.0         C81          
C71          cp           95.0         35.0         20.0         293.0        360.0        90.0         C77          
C72          cd           53.0         30.0         -10.0        0.0          1122.0       90.0         C65          
C73          cd           92.0         30.0         -10.0        478.0        551.0        90.0         C76          
C74          cp           53.0         35.0         50.0         353.0        412.0        90.0         C64          
C75          cd           45.0         65.0         -10.0        0.0          1130.0       90.0         C1           
C76          cp           90.0         35.0         10.0         203.0        260.0        90.0         C73          
C77          cd           88.0         30.0         -20.0        574.0        643.0        90.0         C71          
C78          cp           88.0         35.0         20.0         109.0        170.0        0.0          C105         
C79          cp           87.0         30.0         10.0         668.0        731.0        90.0         C80          
C80          cd           85.0         25.0         -10.0        769.0        820.0        90.0         C79          
C81          cp           85.0         35.0         30.0         47.0         124.0        90.0         C70          
C82          cp           75.0         55.0         20.0         0.0          1110.0       90.0         C85          
C83          cp           72.0         55.0         10.0         0.0          1113.0       90.0         C84          
C84          cd           70.0         58.0         -10.0        458.0        523.0        90.0         C83          
C85          cd           68.0         60.0         -20.0        0.0          1116.0       90.0         C82          
C86          cd           66.0         55.0         -10.0        173.0        238.0        90.0         C90          
C87          cp           65.0         55.0         20.0         85.0         144.0        90.0         C89          
C88          cp           65.0         60.0         30.0         645.0        708.0        90.0         C91          
C89          cd           63.0         58.0         -20.0        737.0        802.0        90.0         C87          
C90          cp           60.0         55.0         10.0         20.0         84.0         90.0         C86          
C91          cd           60.0         60.0         -30.0        0.0          1123.0       90.0         C88          
C92          cd           67.0         85.0         -10.0        368.0        441.0        90.0         C96          
C93          cp           65.0         85.0         40.0         475.0        518.0        90.0         C99          
C94          cd           65.0         82.0         -20.0        0.0          1105.0       90.0         C98          
C95          cp           62.0         80.0         30.0         0.0          1108.0       90.0         C100         
C96          cp           60.0         80.0         10.0         0.0          1109.0       90.0         C92          
C97          cp           60.0         85.0         30.0         561.0        622.0        0.0          C101         
C98          cp           58.0         75.0         20.0         0.0          1115.0       90.0         C94          
C99          cd           55.0         80.0         -40.0        743.0        820.0        90.0         C93          
C100         cd           55.0         85.0         -30.0        647.0        726.0        90.0         C95          
C101         cd           60.0         85.0         -30.0        561.0        622.0        90.0         C97          
C102         cd           45.0         30.0         -10.0        734.0        777.0        90.0         C68          
C103         cd           23.0         55.0         -20.0        546.0        593.0        90.0         C28          
C104         cd           0.0          45.0         -20.0        567.0        624.0        90.0         C39          
C105         cd           88.0         35.0         -20.0        109.0        170.0        90.0         C78          
C106         cd           26.0         32.0         -10.0        0.0          1123.0       90.0         C50          

Vehicle battery capacity : 79.69
Vehicle freight capacity : 200.0
battery consumption rate : 1.0
inverse recharging rate : 3.39
average velocity : 1.0
